# Solution for model teste
# Objective value = 0
x_1,1,1 0
x_1,1,2 1
x_1,1,3 0
x_1,2,1 1
x_1,2,2 0
x_1,2,3 0
x_1,3,1 0
x_1,3,2 0
x_1,3,3 1
x_2,1,1 1
x_2,1,2 0
x_2,1,3 0
x_2,2,1 0
x_2,2,2 0
x_2,2,3 1
x_2,3,1 0
x_2,3,2 1
x_2,3,3 0
x_3,1,1 0
x_3,1,2 0
x_3,1,3 1
x_3,2,1 0
x_3,2,2 1
x_3,2,3 0
x_3,3,1 1
x_3,3,2 0
x_3,3,3 0
